; benchmark generated from python API
(set-info :status unknown)
(declare-fun S_5 () Real)
(declare-fun L_0 () Real)
(declare-fun A_0 () Real)
(declare-fun A_1 () Real)
(declare-fun A_4 () Real)
(declare-fun A_5 () Real)
(declare-fun A_3 () Real)
(declare-fun A_2 () Real)
(declare-fun S_4 () Real)
(declare-fun S_3 () Real)
(declare-fun S_2 () Real)
(declare-fun S_1 () Real)
(declare-fun S_0 () Real)
(declare-fun B () Real)
(declare-fun a () Real)
(assert
 (exists ((I_0 Real) (I_1 Real) (I_2 Real) (I_3 Real) (I_4 Real) (I_5 Real) (L_1 Real) (L_2 Real) (L_3 Real) (L_4 Real) (L_5 Real) (C Real) )(let ((?x40 (- A_0 L_0)))
 (let (($x148 (<= ?x40 S_5)))
 (let (($x146 (>= A_5 A_4)))
 (let (($x145 (>= A_4 A_3)))
 (let (($x144 (>= A_3 A_2)))
 (let (($x143 (>= A_2 A_1)))
 (let (($x142 (>= A_1 A_0)))
 (let (($x140 (>= S_5 S_4)))
 (let (($x137 (>= S_4 S_3)))
 (let (($x134 (>= S_3 S_2)))
 (let (($x131 (>= S_2 S_1)))
 (let (($x128 (>= S_1 S_0)))
 (let ((?x178 (- A_5 L_5)))
 (let ((?x175 (* C 1.0)))
 (let ((?x179 (+ I_4 ?x175)))
 (let (($x187 (= I_4 (ite (< (+ I_3 ?x175) (- A_4 L_4)) (+ I_3 ?x175) (- A_4 L_4)))))
 (let (($x192 (= I_3 (ite (< (+ I_2 ?x175) (- A_3 L_3)) (+ I_2 ?x175) (- A_3 L_3)))))
 (let (($x197 (= I_2 (ite (< (+ I_1 ?x175) (- A_2 L_2)) (+ I_1 ?x175) (- A_2 L_2)))))
 (let (($x201 (= I_1 (ite (< (+ I_0 ?x175) (- A_1 L_1)) (+ I_0 ?x175) (- A_1 L_1)))))
 (let (($x202 (= L_5 L_4)))
 (let (($x207 (=> (not (> (- (- A_5 L_4) I_5) B)) $x202)))
 (let (($x205 (> (- (- A_5 L_4) I_5) B)))
 (let (($x211 (=> $x205 (= L_5 (- (- A_5 I_5) B)))))
 (let (($x212 (= L_4 L_3)))
 (let (($x217 (=> (not (> (- (- A_4 L_3) I_4) B)) $x212)))
 (let (($x215 (> (- (- A_4 L_3) I_4) B)))
 (let (($x221 (=> $x215 (= L_4 (- (- A_4 I_4) B)))))
 (let (($x222 (= L_3 L_2)))
 (let (($x227 (=> (not (> (- (- A_3 L_2) I_3) B)) $x222)))
 (let (($x225 (> (- (- A_3 L_2) I_3) B)))
 (let (($x231 (=> $x225 (= L_3 (- (- A_3 I_3) B)))))
 (let (($x232 (= L_2 L_1)))
 (let (($x237 (=> (not (> (- (- A_2 L_1) I_2) B)) $x232)))
 (let (($x235 (> (- (- A_2 L_1) I_2) B)))
 (let (($x241 (=> $x235 (= L_2 (- (- A_2 I_2) B)))))
 (let (($x242 (= L_1 L_0)))
 (let (($x246 (=> (not (> (- (- A_1 L_0) I_1) B)) $x242)))
 (let (($x244 (> (- (- A_1 L_0) I_1) B)))
 (let (($x250 (=> $x244 (= L_1 (- (- A_1 I_1) B)))))
 (let (($x47 (= a 1.0)))
 (let ((?x43 (* 5.0 a)))
 (let (($x45 (>= B ?x43)))
 (let (($x39 (>= L_0 0.0)))
 (and $x39 (<= I_0 ?x40) (>= C ?x43) $x45 $x47 $x250 $x246 $x241 $x237 $x231 $x227 $x221 $x217 $x211 $x207 $x250 $x246 $x241 $x237 $x231 $x227 $x221 $x217 $x211 $x207 $x201 $x197 $x192 $x187 (= I_5 (ite (< ?x179 ?x178) ?x179 ?x178)) (>= S_0 (- I_0 ?x175)) (<= S_0 I_0) (>= S_1 I_0) $x128 (<= S_1 I_1) (>= S_2 I_1) $x131 (<= S_2 I_2) (>= S_3 I_2) $x134 (<= S_3 I_3) (>= S_4 I_3) $x137 (<= S_4 I_4) (>= S_5 I_4) $x140 (<= S_5 I_5) $x142 $x143 $x144 $x145 $x146 (> (- A_1 L_1) S_5) $x148)))))))))))))))))))))))))))))))))))))))))))))
 )
(check-sat)
